Test: hole015_shuffled.cnf
Options: -no-inverting-opt
WARNING: for repeatability, setting FPU to use double precision
============================[ Problem Statistics ]=============================
|                                                                             |
|  Number of symmetries:           29                                         |
|  Number of invertingSyms:         0                                         |
|  Number of variables:           240                                         |
|  Number of clauses:            1816                                         |
|  Parse time:                   0.00 s                                       |
|                                                                             |
============================[ Search Statistics ]==============================
| Conflicts |          ORIGINAL         |          LEARNT          | Progress |
|           |    Vars  Clauses Literals |    Limit  Clauses Lit/Cl |          |
===============================================================================
|       100 |     240     1816     3840 |      665      105     92 |  0.002 % |
|       250 |     240     1816     3840 |      732      341     70 |  0.002 % |
|       475 |     240     1816     3840 |      805      671     66 |  0.002 % |
|       812 |     240     1816     3840 |      886      697     61 |  0.002 % |
|      1318 |     240     1816     3840 |      974      486     50 |  0.002 % |
|      2077 |     240     1816     3840 |     1072      589     72 |  0.002 % |
|      3216 |     240     1816     3840 |     1179     1180     84 |  0.002 % |
|      4924 |     240     1816     3840 |     1297      756     80 |  0.002 % |
|      7486 |     240     1816     3840 |     1427      786     77 |  0.002 % |
|     11330 |     240     1816     3840 |     1570      846     62 |  0.002 % |
|     17096 |     240     1816     3840 |     1727     1387     74 |  0.002 % |
|     25745 |     240     1816     3840 |     1899      943     88 |  0.002 % |
|     38719 |     240     1816     3840 |     2089     1220     85 |  0.002 % |
|     58180 |     240     1816     3840 |     2298     1571     93 |  0.002 % |
|     87372 |     240     1816     3840 |     2528     1370     73 |  0.002 % |
|    131161 |     240     1816     3840 |     2781     1603     97 |  0.002 % |
|    196845 |     240     1816     3840 |     3059     2488     80 |  0.002 % |
|    295371 |     240     1816     3840 |     3365     2660     96 |  0.002 % |
|    443160 |     240     1816     3840 |     3702     2335    100 |  0.002 % |
|    664843 |     240     1816     3840 |     4072     3013     97 |  0.002 % |
|    997368 |     240     1816     3840 |     4479     2505     80 |  0.002 % |
|   1496156 |     240     1816     3840 |     4927     4522     92 |  0.002 % |
|   2244338 |     240     1816     3840 |     5420     4798     83 |  0.002 % |
|   3366612 |     240     1816     3840 |     5962     3644     90 |  0.002 % |
===============================================================================
restarts              : 8190
conflicts             : 4723129        (18721 /sec)
symconflicts          : 462884         (1835 /sec)
decisions             : 7299563        (0.00 % random) (28933 /sec)
propagations          : 99026025       (392506 /sec)
sympropagations       : 2647387        (10493 /sec)
conflict literals     : 429019811      (6.60 % deleted)
literals     : 429019811      (6.60 % deleted)

HEURISTIC USAGES
random                : 0           
activity w/ lookahead : 0           
activity no lookahead : 0           
original sp           : 7299563     
sym count             : 0           

Memory used           : 18.00 MB
CPU time              : 252.292 s

UNSATISFIABLE
